181
300
210	9
209	7
208	8
207	4
206	3
205	5
204	6
203	5
202	4
201	5
200	8
199	4
198	5
197	7
196	7
195	1
194	7
193	5
192	7
191	4
190	4
189	6
188	4
187	3
186	4
185	3
184	5
183	2
182	5
181	7
180	7
179	5
178	6
177	9
176	8
175	7
174	6
173	3
172	5
171	5
170	6
169	7
168	9
167	4
166	5
165	8
164	4
163	8
162	10
161	8
160	5
159	6
158	2
157	9
156	7
155	7
154	5
153	5
152	3
151	3
150	9
149	6
148	5
147	9
146	6
145	7
144	6
143	2
142	6
141	5
140	4
139	6
138	4
137	8
136	5
135	3
134	6
133	6
132	4
131	4
130	5
129	4
128	3
127	4
126	5
125	6
124	6
123	6
122	4
121	4
120	1
119	7
118	7
117	6
116	7
115	5
114	8
113	8
112	4
111	7
110	1
109	10
108	4
107	8
106	4
105	8
104	6
103	4
102	9
101	4
100	6
99	3
98	5
97	6
96	7
95	6
94	1
93	6
92	11
91	4
90	4
89	4
88	1
87	9
86	4
85	3
84	10
83	5
82	2
81	13
80	2
79	9
78	9
77	4
76	4
75	1
74	7
73	7
72	8
71	5
70	4
69	9
68	4
67	8
66	9
65	7
64	6
63	3
62	1
61	2
60	3
59	4
58	8
57	4
56	4
55	8
54	7
53	3
52	6
51	6
50	6
49	8
48	8
47	3
46	5
45	8
44	2
43	8
42	4
41	4
40	8
39	5
38	8
37	5
36	1
35	5
34	6
33	3
32	5
31	9
30	5
